polyurethane                                
   1.00000000000000     
    17.4327000000000005    0.0000000000000000    0.0000000000000000
     0.0000000000000000   17.4327000000000005    0.0000000000000000
     0.0000000000000000    0.0000000000000000    8.7163500000000003
   C    H    N    O 
   180   296     8    40
Direct
  0.4075583306214862  0.3264934202415079  0.1944316875725647
  0.3648557782921245  0.3852941380759220  0.2874301841160187
  0.3037022930081821  0.4222475766775849  0.1924434563398472
  0.3718853651339415  0.4381252843241182  0.7547902889035308
  0.6312102364893738  0.2353919012093936  0.0976425725977073
  0.3402061929151719  0.5108793390201671  0.8094974750934686
  0.5936152111602626  0.2938757561868541  0.0098123961422383
  0.5513664995229088  0.3356609401257477  0.1520109592154201
  0.3736593846540961  0.1295347203873413  0.9921555626777423
  0.3166116121090425  0.1832355449567532  0.9136727275162468
  0.2665175050075765  0.1296121566049444  0.7948263896262054
  0.4655713815710517  0.1525085906125714  0.0047322222609347
  0.0660865052741771  0.0570816397523453  0.8944228070627802
  0.2016095275528670  1.0193782890319689  0.7783102947592367
  0.8646366480949677  0.2414963171737395  0.1391864486008851
  0.4245101640216502  0.3920592308627589  0.8563425855036770
  0.4342445108085686  0.3201502675003486  0.8196700859405228
  0.8054893131910764  0.1944440384388753  1.1337984055039347
  0.7660063309857778  0.0628810573780706  1.0223934367914194
  0.1276160411478248  1.0124220595864057  0.8179243612574302
  0.9979913861009334  0.0332857821664999  0.9727658523186674
  0.8121608165425573  0.1328108575982415  1.0393496781894931
  0.6540268178742077  0.1476993593567240  0.0832645385669318
  0.2414312158088000  0.4569111062789726  0.2776237781089699
  0.9394975978125010  0.6782015266938040  0.3084271575291211
  0.1983161215688387  0.7193377629305089  0.1967468956129144
  0.1565584660619287  0.6408187659834335  0.1463159039257947
  0.1539727374111163  0.7735767869942682  0.3482597380526207
  0.2097721236222716  0.5816345295034414  0.1109638431612458
  0.0783987122992209  0.7140275165570076  0.5276947635244892
  0.8609229665188320  0.7490955466920090  0.7079904486119696
  0.8384896827383330  0.7417864744638480  0.3490783624873852
  0.0624419286135407  0.4994583779905593  0.8760482931569559
  0.8038702007492283  0.7937611548855406  0.4708973986184619
  0.8738950424312156  0.8370783839251672  0.5159211404427357
  0.8918927219062398  0.8877434425529417  0.7677937585992707
  0.9508360894692844  0.8020263367555558  0.4441031016456543
  0.8816551885722107  0.8289402905669420  0.6957091957682654
  0.7844732411270465  0.7644381394129777  0.6152839706077052
  0.9333773360324530  0.5438333986295312  0.6837639856383291
  0.0388985612809404  0.6393709725673342  0.7647799359409706
  0.0099712470854630  0.5587603556856426  0.6913556490377812
  0.8881731845686981  0.6166268267263040  0.6329300324118615
  0.9837859451567931  0.6989865869109479  0.7463666326091749
  0.9034092109428116  0.6773532302022104  0.7126304167534011
  0.0726685036839607  0.4639275443588116  0.3838309198042952
  0.6019322708805824 -0.0119698859276134  1.1338168877300412
  0.4933000899583271  0.0011515567912233  0.9541282382978116
  0.0148329013436809  0.3917389534952376  0.3870279779614252
  0.1011580932453909  0.2760772370097472  0.3805069813658578
  0.1371111953631030  0.2202280780048556  0.6868831203083442
  0.2303527164677989  0.1847850843443821  0.6527602030405405
  0.1878229258944495  0.1137998418993826  0.5433662460068778
  0.0526304535643327  1.0301772142168304  0.7307250525463548
  0.9495320215933165  0.5148928474708995  0.2737583527519384
  0.0361700777085517  0.5347102244455982  0.2990704066801652
  0.8601468349410538  0.1519494693243905  0.6683016411943007
  0.5917378702248739  0.4544515358616066  0.7844098609584248
  0.4664372133078135  0.9428240182502962  0.0275186291453873
  0.4092226026769420  0.8861624372153374 -0.0331636042434343
  0.6197850592363447  0.8714679517943836  1.0407575367102875
  0.6120183540734094  0.9026299901040210  0.1830773816900534
  0.9173771123047457  0.7896025534650453  1.0247186315096000
  0.8470263942070001  0.8508598359702868  0.1888642517085397
  0.0380747453485536  0.8544438203977981  0.0302228756597359
  0.8883550344083484  0.0808705495141209  0.7175210047029842
  0.0337746071790058  0.0665163914550603  0.5902743102473260
  0.9377260024793064  0.0343965136420704  0.6252794921987386
  0.3760878749277802  0.9289965312141796 -0.1885774916614502
  0.0466032957960876  0.9090877065119168  0.1947524514796858
  0.6861521662353331  0.8217666580189743  1.0556177766873296
  0.7769107650010751  0.9364434160972885  0.9852320890879291
  0.7201276566766857  0.9030195887668072  0.8710639014174675
  0.8033906067700948  0.5568172996413765  0.1632151349962843
  0.7440315479338597  0.8296049546519454  0.9415436683139009
  0.0106161473302578  0.7699738259960291  1.0558205986342979
  0.8319028551992347  0.6100282502302152  0.0606880730115772
  0.8393113434614772  0.4711763365853546  0.4073432534731332
  0.6768677322341068  0.4597173373235940  0.7962471357903920
  0.5635351860389665  0.4867850557490320  0.6028760271561461
  0.6253361586261929  0.4745735414421639  0.4523559511065865
  0.7968060215228497  0.4226267845647114  0.7184576556171784
  0.7098301577840145  0.4467655048391905  0.5010507542741682
  0.7174763038191834  0.4216547007230544  0.6603058629528761
  0.5527262771348636  0.4959172789214436  0.9051652616680635
  0.7101244489085184  0.5361564467313786  0.8764178315195181
  0.6676377785922245  0.5579322875040178  0.0010163772622613
  0.7593449768415138  0.5933803375777000  0.8074511534225367
  0.7636124359504125  0.6429961254699372  0.9729042699519553
  0.5978516384963447  0.5255689282840090  0.0492886763319129
  0.1790032499306594  0.1651874213196812  0.0979761385825700
  0.1273940387665225  0.1417046779641031  0.2432083535222522
  0.1837411567084155  0.2519576716580742  0.1044437010618331
  0.2768947171532875  0.1067231494277940  0.3284731364609748
  0.2744194752676689  1.0476520683019650  0.2314722881105906
  0.2724740868845737  0.2563155425880361  0.2991989792782570
  0.3077777672625863  0.1803113917099678  0.2790140459158604
  0.0081373367702384  0.3903911925821947  1.0431452121679154
  0.9341867253156946  0.1976533207328847  0.3953106580109999
  1.0222839512851445  0.3180407110151716  0.0935515296575879
  0.7946601591897871 -0.0156962088231942  0.4030738217707064
  0.7255888003062324  0.4247488798550850  0.1884265090121288
  0.9085550153587777  0.4754058993773774  0.9244765958938078
  0.7387311940827843  0.3895921651898567  0.3605334201775534
  0.8516789818563324  0.0435458710586472  0.3201657693125795
  0.7372922089082379  0.0333955586731236  0.4564039248060568
  0.9624654440288427  0.1502345779197808  0.2609235001904194
  0.9538685373725835  0.3999096314773917  0.9096929251270355
  0.1271686231902344  0.0531457378835720  0.2517151863306542
  0.7227690238615235  0.3068358365087223  0.3526729128245795
  0.4883274054505465  0.0523681155501582  0.4310849388820951
  0.4676467039794578  0.0972219040446086  0.2910666340732996
  0.5132623982267858  0.1581961226408697  0.3777285385184532
  0.8830152570680802  0.2598886473415323  0.3398135317048426
  0.6622840728696727  0.2739211980418204  0.4653336418811441
  0.7989281538020458  0.2514728666782954  0.4141665713384024
  0.8081987056019307  0.2939873024257749  0.9236610140667794
  0.2800987526660547  0.3353193060234407  0.8281991928123362
  0.8875599003906504  0.2116514194221193  0.7771845209200589
  0.6548059642191664  1.0123222949703223  0.4593112370246722
  0.5439511689925052  0.1079120594013784  0.5003219483913446
  0.9671439523129326  0.2478228363186232  0.7600170314236088
  0.5290009589327985  0.3174558980250841  0.5165967200719978
  0.4204021623562210  0.3600834398367501  0.5292906131822781
  0.3980125965648821  0.3116579522181872  0.6694195334623031
  0.0795433357238053  0.3673841184706106  0.7865886264213718
  0.3478988062558671  0.3866473056764517  0.4454475366803407
  0.3208921772790382  0.3665936630719719  0.7029666502188788
  0.1531987716545707  0.3629677917566186  0.7274401251293795
  0.4005761343115957  0.2368057886233122  0.5821876040751879
  0.2844478903060569  0.3601645672663710  0.5627948456835417
  0.1604004889660087  0.4080787954423709  0.9694906209371624
  0.0818669211133605  0.4140791672093665  0.9372204863269290
  0.1986729147945657  0.3712061624371817  0.8492967328571799
  0.0065628321154284  0.3774616407392273  0.7282310386431128
  0.6776802449020888  0.0690240517060374  0.7596682517361467
  0.2495625282058080  0.6744218513481044  0.8758571051899595
  0.2668664833436497  0.7464810994758795 -0.1949325777969297
  0.4033201776213349  0.8160175817657582  0.2260526798324198
  0.3935447174555295  0.6773425364985379  1.0386299325187123
  0.4618821313438411  0.6939233804281193  0.9541001874031652
  0.3659585735869743  0.7511833388770421  0.3266726885043957
  0.4875375171149459  0.8200389996358048  0.2819425481976175
  0.2242089606517323  0.8669182921169205 -0.0529703250813570
  0.4859571913461933  0.4847975028800011  0.3228027874992591
  0.4676278566309148  0.5244468058454267  0.1886486771959226
  0.5296489298784816  0.5735179434158200  0.1184365345729562
  0.3971230099928502  0.5750120510479739  0.1940249361057362
  0.8299173440701140  0.9335533719947087  0.5082538598264567
  0.5312570724050539  0.7555250712772571  0.2975510138723754
  0.6535047254579200  0.7517772320256052  0.3906911003709466
  0.7120803651462807  0.8266483091014406  0.4346364834372224
  0.2022846371722454  0.7993022167065881 -0.1455633596170844
  0.1903458986156060  0.9078278952987390  0.0515061583955592
  0.9144334157840983  0.9731129118067648  0.5406864924715876
  0.2124877656236143  0.8916277967059866  0.5534620280437565
  0.1547053187432123  0.9496894435376174  0.4663568005394630
  0.1855395792095028  0.5490839355696251  0.5309770614952137
  0.3584035778579589  0.8985496572749219  0.2416752523026693
  0.3402423059010526  0.5820553036350090  0.7256223923458895
  0.5078536295535909  0.5568357646458872  0.8650320327325000
  0.3483484983671273  0.5662157839056989  0.5348476587610125
  0.2931837529854169  0.6085015463979844  0.4552161511470837
  0.2172014169954847  0.6090387312336105  0.4598300151568359
  0.5144733141814242  0.6286049316110686  0.9595484968567388
  0.4344909914044111  0.8553899451224030  0.5927192178739212
  0.6442383180414206  0.1419567722321110  0.7847459221790916
  0.6801309028907350  0.6191977328557128  0.4871089051280308
  0.4412257884205517  0.0861106049028741  0.7177779447611258
  0.4226249567318070  0.0560517537669083  0.5475112877202796
  0.5460779109776461  0.6747180362272668  0.6255240426756150
  0.6244426616649370  0.7015838697382577  0.6519196556586634
  0.4911146730632436  0.8017021729766457  0.6278108502993589
  0.5376450404979938  0.8158086099193331  0.7625241071333174
  0.4800950420003912  0.7230076928492647  0.5900178981827823
  0.6130167819172900  0.7750710528888045  0.7416687709204310
  0.4737562340300557  0.0336353795794279  0.7989384348051700
  0.3811050486489427  0.9898743846304606  0.5839524881036098
  0.5239275752648674  0.9721403379847566  0.6971453251822260
  0.4250680915979476  0.9252578123891521  0.6783383835406446
  0.1489320510777919  0.2943248858349221  0.3347117896076519
  0.3809388756218703  0.3388540794940043  0.0695390313297419
  0.2899888859523105  0.3811778185542193  0.0936621595622540
  0.5580544284990594  0.2931548657437590  0.2314315244836544
  0.4014318465714021  0.4262886878279318  0.2864810347549985
  0.5210134712536916  0.2135141412017293  1.1428927008676535
  0.5345057237115379  0.2745999131357125  0.9356024775560948
  0.6216210857758797  0.3367082369507859  0.9423516261985319
  0.3266044613291252  0.4590441935891181  0.0983005111267519
  0.6881417908534723  0.2660190015597878  1.0949378821993572
  0.8703003838685728  0.3336160807810666  0.1902450714589093
  0.5857805389728056  0.3862919506085410  0.2111165965990743
  0.4103451383267661  0.4589090447151306  0.6529680976211093
  0.6217731504758984  0.2196407044806836  0.2212763529875415
  0.4779557302067902  0.2797475579924273  0.8590639653518526
  0.6714534675032759  0.1366958769134441  0.3478933466107483
  0.7323380165768330  0.0658100877585161  0.1260683930254743
  0.4053789952731758  0.2346163529352270  0.4375778349294869
  0.3946917525510189  0.2784964887254484  0.2712397979279095
  0.3973782451436896  0.0630770949915458  0.9317134984648002
  0.3476566904202383  0.2348373363322450  0.8922811425457204
  0.1019074274536961  0.1750500122495667  0.6993660690943164
  0.2848523785774347  0.2238090278882456  0.9994829477681469
  0.4739839986098820  0.1740238039493913 -0.1034423363557837
  0.0800433959372677  0.2075840585585797  1.0016622172847671
  0.3067487723823086  0.0886837014907802  0.7317037388986665
  0.3680760057464646  0.0959337306665151  1.0971107989076028
  0.1751016585665595  0.3582504402284820  0.1716145044597495
  0.5113348291682487  0.1177376946811939 -0.0102519198109930
  0.3971949028922115  0.2796911044836069  0.8947168588448249
  0.1663550676932751  0.0886955882991482  0.6665328316231545
  0.9750341498420305  0.0834604066942510  0.0254022292228573
  0.8118361437308049  0.2915671626524677  0.1624147303879057
  0.4128181991362921  0.3965206294732000 -0.0322661043220581
  0.9106681828886505  0.5039251460422862  0.6198686750077032
  0.6909585120394378  0.1491636355268082 -0.0188739917518898
  1.0035906064588354  0.0039055064356184  0.0829506828261614
  0.0959316904924238  0.1239143995172818  0.8979611223504563
  0.2120502914765774  0.0069389092793278  0.6570315843918286
  0.7866065272312596  0.2632742932933562  1.0057403210147282
  0.6113735655993325  0.1148769600272902  0.0651432378098865
  0.7109488592691068  0.0632205745666228 -0.0666597174456057
  0.6801326089438257  0.3720365585093632  0.6460881196001742
  0.0887418316484069  0.8746784060561301 -0.0201994417123471
  0.9046643893382711  0.1381112195933185  0.1983934442321531
  0.2391802928670251  0.4008956077079141  0.5128082607486778
  0.2538372094921656  0.5095394299420887  1.3585934434836668
  0.2089178477744889  0.4025968525687083  0.3407905014830928
  0.9999008018285235  0.6698759750451907  0.2184070008172931
  0.9068022770165199  0.6427560396077995  0.2700493852351769
  0.9551010779275015  0.6383341984504264  0.4029612427189229
  0.2554944677260171  0.6923911060632618  0.2582884952624765
  0.2092179377641044  0.7427114546321621  0.0885693848312228
  0.1901419044660584  0.7591681259257164  0.4394747852539940
  0.2739423975863692  0.5854055990366017  0.1423138806676033
  0.1737797549266135  0.8277489829793451  0.2978948908386696
  0.1118120169664059  0.6321863175471996  0.0395303967998922
  0.1416467331963707  0.6134955998535181  0.2664604810726087
  0.1939923350886503  0.5469778054396738  0.0103928425891620
  0.3306526899776610  0.0080555547010543  0.9928107052237726
  0.7848534895713819  0.6990761327983080 -0.0463128358255462
  0.1426189994850125  0.7841471420639980 -0.1300988012042950
  0.7448397577693617  0.7267562053335966 -0.3391513754396843
  0.0978959392085248  0.6374200675385336  0.7713197507517975
 -0.1125116238291289  0.9421714553826618  0.7184730640295445
  0.1185788840141831  0.9581549523581067  0.8463636976523761
  0.0297565021388561  0.6874529027148608  0.5046925090019684
  0.7712346548448443  0.8201963729887721  0.6647480678887919
  0.1019146350524543  0.7496972011707257  0.6089405798338126
  0.9960889936696234  0.7579849276409285  0.7545232098762565
  0.8306267724970375  0.6160210817880180  0.5506081771387935
  1.1218749941768951  0.6725355551542629  0.5244922813373851
 -0.1368467919624009  0.4528212045802641  0.8693409393820646
  0.1492697753759810  0.8687147857809394  0.1110567743175416
  1.0827597949397587  0.4653929250036092  0.5012493732492120
 -0.0534986582022938  0.3757048784519869  0.4237034563104881
  0.3984383872788825  0.1286310285358438  0.7545788745983902
  1.0135558103774995  0.2036170525537400  0.7242534383539759
  0.7992279460802620  0.8115997135552363  0.1580691844347397
  0.0649640824363243  0.5227686992433710  0.1802896214879929
  0.6552698161796321 -0.0037646922263225  1.0907208799394150
  1.0094765532291583  0.3549327420527819  0.2784705205560659
  0.1540364658418124  0.2754429967407684  0.6270167349382040
  0.1034762310343950  0.2245268584471760  0.4584553252330337
  0.1435842658999504  0.2497065463371298  0.8049266926552838
  0.2736842372930448  0.2234101704991085  0.5717716851321805
  0.1445792780221776  0.0324769968254919  0.1279851258658801
  0.9332561606178491  0.4605174460322771  0.2177801007503974
  0.0332774281969820  0.1206591272942415  0.5276346716638034
  0.0572728232075131  0.2554384376282838  0.2839562169621564
  0.1566641773007920  0.1345462583250898  0.4628826260011594
  0.9211868514726779  0.5533191311964554  0.1652391132025858
  0.0186836513528676  0.9698906670358389  0.7133625514573898
  0.0467378137729916  0.5900664109162002  0.3348310187865792
  0.8112837264901387  0.4810428327202914  0.6860944210514390
  0.3470969494058381  0.1845530403826655  0.6187045759522298
  0.8721612312209183 -0.1700103348079889  0.3180078257683617
  0.4180318487658440  0.8207659559516224  0.9378087309648564
  0.7544309344720582  0.9415527651673832  1.0968268352795061
  0.8908012010041833  0.1655771844891081  0.5634917361302905
  0.6436785779322294  0.2851391863073012 -0.2765923100798707
  0.5223847547227363  0.4617003307367216 -0.0134332696386613
  0.6913752000804728  0.2434254528106524  0.8249292474486860
  0.7891965357025359  0.4261037988139807  0.8420137390985565
  0.6546933621031750  0.8400668985022169  0.7261171289698636
  0.8328590249168630  0.8999389924026036  0.9968770329134340
  0.3156082512676616  0.1767124636822862  0.1583730738201507
  0.5284418539470301  0.9902678306689200  0.2766761372738056
  0.9090207676181706  0.7953335812728267  0.8983409655373138
  0.1843436836046727  0.8430131576664499  0.5136058026007178
  0.6961251068929579  0.8121813385580519  1.1582461880646329
  0.5702701293985672  0.8956877189481697  0.2945223742291354
  0.2511108184467421  0.2821703044190829  0.8566038844592541
  0.8785279380997590  0.7376019702957972  1.0690659607974777
  0.8377965647690772  0.9098355660704245  0.2202945039943949
  0.6681587156001912  0.9079161004465474  0.2343842170345635
  0.5662691767011279  0.9467057085549470  0.7649442087345657
  0.6219847486710183 -0.0589312008259220  0.6610567799227232
 -0.0022124012485472  0.8767080857542159 -0.0622141082830975
  0.9745952125306572  0.0992366586562028  0.3440403596721723
  0.8287630101479457  0.0524514920726081  0.7170390517602466
  0.6983750233359427  0.6315239145436452  0.1768718130554767
  0.6109586409704969  0.4506087457549166  0.3325463576033473
  0.0575935110975337  0.0212246161432467  0.5239032837041384
  0.9765404668627674  0.8341529107114525  0.3388476091867778
  0.7721501185449764  0.5943427706700471  0.6856035083433647
  0.2186905068854768  0.9637241558774468  0.8265609961856136
  0.1608775469638120  1.0102877532385164  0.4877897457664384
  0.0605951742393460 -0.0340622258425707  0.1993911747794108
  0.5754690224848586  0.3956186327499351  0.8012131068614801
  0.3130496064069014  0.8812910819573371 -0.1955132066192732
 -0.0060189863155949  0.2401949590781343  0.4875469318926044
  0.5647910165812549  0.8458377768519447  1.0223470956779936
  0.8272302450322339  0.5021456674012781  1.1008373059028549
  0.7148741512516648  0.7803623473209281  0.8539748104035296
  0.7652949964815785  0.5401863948195335  1.4817805372225950
  0.6608268023792082  0.6721957935928553  0.7229188360908675
  0.8032389251357428  0.8234855570428927  0.9605767119181049
  0.8137084643115186  0.5525897327383322  0.7948977563787987
  0.7261398260626820  0.9071956043678885  0.7269202287882318
  0.8320018952278262  0.5592231414267689  0.2843354441665241
  0.0613566898289290  0.8186531448317409  0.6744804703644923
  0.0159866775652818  0.7364662084115485  0.9555420364103278
  0.6671334960118058  0.7579282277636048  1.0434757114369984
  0.3649053568321732  0.8793093244282187  0.0438895518763823
  0.8029129599732605  0.1539717636090228  0.6116847780278130
  0.6697979062945247  0.5688126565362744  0.5715582589795895
  0.3382059347438849  0.7560926422150321 -0.3676907303045124
  0.0661201839791787  0.1694329766800579  1.2746526972195262
  0.0804215503082876  0.3048017448189264  0.8415644378914421
  0.2471978509939211  0.1396035628272649  0.0729172800803635
  0.1404252148919255  0.1578187874077379  0.9839653609554085
  0.0306586660295874  0.4276792791799116  0.1679047200200496
  0.2659803373894652 -0.0177015722024024  0.2742884206731097
  0.5037182883607999  0.9038116618193669  0.0599434848574657
  1.0041252732447425  0.1881112317745410  0.1709197671551629
  0.2666782668040515  1.0338558067772037  0.1093993140462377
 -0.0491310991714915  0.3022493112616887  0.5604915615602413
  0.2214785904320825  0.2501095075311627  0.3496805471761219
  0.9456030243160000  0.1690364966208282  0.4937813668658434
  0.6822850908921329  0.4719224904831292  0.1636265845011418
  0.1341284756768859  0.2544682302297792  0.1897655607115779
  0.1509367557883103  0.2781492041137819 -0.0062864973820477
  0.2893226854889374  0.3017315368380762  0.3939883764992521
  0.7028340883763983  0.4198984075142173  0.8789546250108600
  0.8255162361247476  0.3456581166316851  0.9814813447012672
  0.8970050228923959  1.0544055231199594  0.4060304810125647
  0.8750892775755407  0.4389599297600230  1.0328592705862349
  0.5101995635200738  0.5003843560373804  0.5340736491479181
  0.7754886138952093 -0.0544480479022609  0.3134021855967246
  0.6826533122468124  0.2147044464266504  0.4300586968182228
  0.8023630499239550  0.9439136406222300  0.6157945208355678
  0.8270553927815009  1.0990668522034399  0.2917262295877619
  0.7462567560755776  0.0733238381615469  0.3671835490410185
  0.9168229511319090  0.3582753350263871  0.9267130739498814
  0.9022356874929718  0.3168280793103303  0.3282413168353665
  0.6127091499924554  0.3266613875828404 -0.2778888600592067
  0.8989220645154553  0.5383101713505412 -0.0616009309713783
  0.0757119093390494  1.0325126691073740  0.3031220518015246
  0.1195208357689319  0.4617834229057276  0.3311879930482242
  0.1771331541615397  0.4580472766840359  0.6599527833852559
  0.5754823658457837  0.0405967212477733  0.1799704065073179
  0.5507274438196085  0.5643307889508179  0.3762731712150470
  0.4063508420291598  0.0915155434760329  0.2531901171448139
  0.5021289835585145  0.0693705412153768  0.2144348689276434
  0.2799402004932393  0.8929067550245264  0.2271350179889822
  0.8665646954487427  0.1154797774439518  1.0103945159113963
  0.7078769915590543  0.2828261822966611  0.2440741224536709
  0.7457383109079444  0.5491582122746955  0.2031900507877391
  0.5618413937740168  0.1820396169772523  0.3012837556926904
  0.7778156687457130  0.1898239618019112  0.4209993069032343
  0.8793224885916417  0.3457780169226327  0.6869074992928160
  0.1385057014736491  0.3676041463306056  0.6029794484227674
  0.7605974010985261  0.3247943301071297  0.8764089822718730
  0.7608091869769869  0.1795495769224077  1.2235026152015398
  0.6782038641544711  0.2701769177252871  0.5940182072526807
  0.7989368365019475  0.2951847313094295  0.5031219255828332
  0.2624821592818046  0.8789030092672860  0.4552343580242529
  0.9891908107142219  0.2804075357564606  1.1766040589372975
  0.1917438890483003  0.4363146280312295  1.0576948993481778
  0.3048372415674550  0.3647478911026019  0.9250795781850121
  0.1851084119482773  0.1448756956478629  0.3121367294043778
  0.9226777255180875  0.1824315096106572  0.9039665939929133
  0.8993255607830596  0.3586082005077877  0.1257007930734109
  1.0621577029778286  0.3143364978472864  0.1751621978667830
  0.9355034495746031  0.0990921153634932  0.8113038802898478
  0.1829838100471264  0.0337267578535334  0.2963013940373448
  0.4468470016161311  0.2055321332599698  0.6364895848597930
 -0.0014459084231289  0.4321465889835848  0.7030743622518583
  0.7732543801910334  1.0452197345500731  0.5703281532999668
  0.9090568601090901  0.2565819793368911  1.1047192658476299
  0.6790366894494178  1.0086856110624296  0.2937318228778673
  0.3604949767052468  0.1732577943965259  0.3518874010091777
  0.6442480912709198  0.9071411196533613  0.6811333702407742
  0.3275881952339932  0.4471469705483454  0.4743079090503411
  0.2685075921989875  0.3052514487955655  0.5419267249289930
  0.5457974549525829  0.1287946668895179  0.6177591097859763
  0.6157643603569540  0.9648528976335865  0.4464122923608345
  0.4673888885611596  0.2032153109950683  0.4003258558105930
  0.1489615580911688  0.3793614163366898  0.2138255674001237
  0.9933187514910917  0.2810180896695095  0.8663103929603266
  0.5772810096653525  0.5379127373272570  0.5815869035235548
  0.5214718019563904  0.4347595412001211  0.3364571750876008
  0.3450604525736951  0.5442730829758345  0.2543154347098081
  0.4577657502881976  0.4690363432955231  0.0991971814703294
  0.7321154900334644  0.0674390415405270  0.7195830986284695
  0.3669732786113041  0.0964634054738062  0.5015315285480914
  0.6641371545495300  0.0126073848102438  0.8340618698728517
  0.6761427177215975  0.0457519754227116  0.6454092280062393
  0.3019922073363020  0.6321799449612292  0.9119590452649373
  0.2182507547400613  0.6709818618338081  0.9892472397217553
  0.2573883611226983  0.7837921643617297  0.3238398419561399
  0.5600519460483476  0.6155462307139427  0.1858926835584814
  0.3888395372769128  0.7972907852119688  0.1072211804851888
  0.5010653877367951  0.7220335626522644  0.0356404177870825
  0.3898940756647672  0.6989553292160133  0.3954260426201139
  0.2796414902378860  0.7553411187273892 -0.3146177672321531
  0.4052780852691291  0.6920579593173444  0.1745530964215975
  0.2731674553842675  0.8977108951252606 -0.1082211170260661
  0.0364887136127365  0.7596007683144312  0.1503798109662589
  0.3176583372316822  0.7738160292760169 -0.1649876141032237
  0.6036423922354154  0.4825198358552789  0.1464556728194835
  0.3255061598519178  0.7086930599427387  0.2602923413585664
  0.4995165210684296  0.8362139062096791  0.3985523352280829
  0.8490257793804337  0.7508091298186158  0.8278877921079050
  0.5099246415297577  0.8607426831091114  0.2012539649445332
  0.7168336688953595  0.8625381562646338  0.3419419168788116
  0.4587527825012012  0.7347371824591368  0.8470569981472437
  0.3186958239120611  0.7580223444349846 -0.4285717999969171
  0.6966234624115628  0.7337998897851482  0.2779543852616534
  0.5055292822508189  0.7183264879269203  0.3472898501833295
  0.9965806948327578  0.7957598511060723  0.5236333498636465
  0.4509753997341405  0.4905621677802982  0.4464066061413123
  0.5207482074750291  0.7872389300997437  0.8674098852285063
  0.5826023786129493  0.7329862345279207  0.1804449549266981
  0.6799319397917103  0.8588630504335882  0.5342563466475243
  0.3889177633440973  0.6228817333953856  0.2878207578876448
  0.1749157655695857  0.9636349905361520  0.1177225277084404
  0.3552129120055405  0.7033625417458180  0.9598761447111102
  0.1995287793194528  0.8146360821735220 -0.2753885718891851
  0.9285254411498137  0.9640364195979979  0.9314685573507694
  0.1143243109346995  0.9230503282945042  0.3920509522498464
  0.1113518472093836  0.9286905764704108  0.5690248199173218
  0.1008731364091575  0.9059519918442422  0.2677777192143167
  0.2172869919753141  0.9061817937848574  0.6859260745177107
  0.3555778082878976  0.8933088458390246  0.3803966743479805
  0.1531324768448719  0.5333209577110903  0.3473003363203576
  0.1249541958824332  0.5616661957397906  0.5766168666129855
  0.3885554970278108  0.9509918756561553  0.1836709116750019
 -0.0898636590880889  0.8807998129376775  0.8778279220494645
  0.5291674855493297  0.8729951001091427  0.7949543516417756
  0.5173607507695683  0.5853354647918354  0.7527873335646463
  0.2936365736687945  1.0030957990172216  1.9788277667310570
  0.8508669895865771  1.0105471084648912  1.0988000351611256
  0.1919655526197033  0.6651283697459972  0.4137068201260476
  0.4481211698602039  0.7177874261386902  0.4954022156001945
  0.6135878556568780  0.7518384579456452  0.8491773655633940
  0.0323931782993898  0.8360167783876763  0.7365731943633242
  0.5239469493415924  0.6713995926129580  0.7485167884816707
  0.3041381230750621  0.6398787457533651  0.6953537733501415
  0.4444283060016740  0.5388780710693151  0.9056435481133251
  0.1686203180279516  0.6106510530426145  0.8719185377502929
  0.4074018423488713  0.5568256016071861  0.5015966275750167
  0.0011008734860677  0.9027835108761066  0.2521240917150293
  0.3329203513062581  0.5110375995148226  0.4776706645308607
  0.3927042261184472  0.8528748384740082  0.4880943603535146
  0.4689064231213029  0.4363437049897816  0.8352411219834451
  0.5256156569571885  0.6043967281887694  0.6170104270310485
  0.5691187399786313  0.6470519945513252  0.9716404664517648
  0.4185978388997182  0.6812394135895889  0.6393047130876528
  0.5414272404311997  0.9678733601146657  0.5934488938778253
  0.5284475068347648  0.1544601316550948  0.7819806071399795
  0.3521657221182934  0.9743838877134995  0.4769469017019685
  0.3297852302958498  0.6710114484885213  0.4308026802771790
  0.5886598189950503  0.2399982357275299  0.7904996644212825
  0.6326284016520823  0.5204536157870667  0.3867644712426808
  0.9138553167222804  0.7377463500221468  0.3904183141991073
  0.0594054886500901  0.4957106564037559  0.7322108493203308
  0.7688451887741992  0.4922783458347271  0.4319612177550113
  0.6946509001556154  0.6344016188890138  0.0608307298529134
  0.4795066604554751  0.3567865394696483  0.4461826610906733
 -0.0364521439804226  0.3173828159911163  0.6616387146933056
  0.5773515311607266  0.1781665035336990  0.7966174284211969
  0.6686101382459969  0.6947800265171670  0.5199461397395526
  0.8094266849647226  0.7141054726610021  0.2349344703223340
  0.0549536721981185  0.5504650591898020 -0.0050474544295385