polyurea                                
   1.00000000000000     
    17.2236000000000011    0.0000000000000000    0.0000000000000000
     0.0000000000000000   17.2236000000000011    0.0000000000000000
     0.0000000000000000    0.0000000000000000    8.6118000000000006
   C    H    N    O 
   174   280     8    38
Direct
  0.1505214118826100  0.1124285937692531  0.2683614918703828
  0.2117509519507972 -0.0570289308861334 -0.1086502848868590
  0.3295619044928549  0.3182050240787652  0.3520897033954713
 -0.0549428640203633  0.4095502842102436  0.3381759590427629
  0.2499813260045199  0.4518614212169970  0.1276769767226964
  0.4354305214133737  0.1749745194116855  0.2835916615310189
  0.3674161351369431  0.3775080764414596  0.5524985546341526
  0.4443936028208484  0.2775086388354093  0.1136139387897847
  0.1136211048343564  0.4673376375453209  0.1624444386887889
  0.3205423701185132  0.5273848648031654  0.1168573493297681
  0.4798350623420938  0.1383170601083882  0.1836019364768674
  0.3745566886510114  0.4587216612854081  0.6445721798181856
  0.0396595428894655  0.4753159296717697  0.2423153162900508
  0.4919756745147248  0.0150945307671916  0.2652202714699050
  0.8865751435516790  0.0181079054074178  0.3155481422353830
  0.1137018242605469 -0.0391563317510321  0.8838734248720748
  0.3022078406146629  0.5729021242302870  0.6310176594276392
  0.5512475306983917  0.3114898127305580  0.4558716751414332
  0.1824263542474605  0.4798716802854198  0.2186400975849041
  0.7211820977495490  0.0373525027697086  0.9031146745809980
  0.7676473424451334  0.1022159338980787  0.8521068628238132
  0.7187598023368799  1.0149430267400441  0.0719052710538992
  0.6767673806018026  0.3002206075569708  0.0242999351428849
  0.6926909441272219  0.2125654801489120  0.2213946405707596
  0.6625598227050588  0.3716951622734695 -0.0232553623368887
  0.5906315899393100  0.3857964374593416  0.3592929195748670
  0.2486029790667053  0.9004337457062603 -0.0087268596956191
  0.7484042442249026  0.2807368943319968  0.1472425791662480
  0.5827512933366481  0.2372840991876728  0.4245993886520358
  0.7754112868433142  0.4762053629793184  0.4658167258516610
  0.6052079654627894  0.2198204186729356  0.2448757321970664
  0.5439172847200409  1.0797836976112463  0.2496527447476984
  0.2434236481534654  0.1824333718710586  0.0364027798269614
  0.2213991124777260  0.2683773515418362  0.0592591108034148
  0.2184353036141987  0.3004522247471209  0.6983407837001134
 -0.0585120797967971  0.4416429313316860  0.4749221934157292
  0.1398105965546482  0.4638664024031866  0.7860353852491853
 -0.0005149198882769  0.1416929205123019  0.5841971985818458
  0.4234253549564835  0.2753418668958693  0.9651413250916436
  0.4560738603833184 -0.0082265566493560  0.9252633070226041
  0.0690521207072590  0.4128794463486433  0.5313217958615156
  0.4369813929160521 -0.0894332037692032  0.9562385990102478
  0.2166087408127084  0.0596726352640577  0.6158121423472026
  0.5257098418322080  0.2768063823027382  1.0342212935414263
  0.2849441802766766  0.1288978622759710  0.1324091563744065
  0.8591716441538194  0.1033470166399719  0.0491283060499263
  0.5181117519167655  0.4354396585173890  0.8373891610453844
  0.9372016979840294  0.2599366732794602  0.5349302227334999
  0.6317992036269071  0.1891633429225163  0.7114136568068868
  0.5393006707101258  0.0081160712225264  0.8949046594408895
  0.6082269322543863  0.1581091904575020  0.8553793899430435
  0.4109097257143687  0.2096310780465634  0.8727218441665638
  0.7607480276756737  0.2643876458283082  0.7133452594981852
  0.6792234789529344  0.2496538282798198  0.7111917231148630
  0.9338134571497219  0.1892127413445708  0.6352097981735155
  0.8696750245784663  0.3184996827673491  0.5712282084900521
  0.6917025981687822  0.4607611903576021  0.4969840047694113
  0.1045042297856492  0.3504293028078362  0.4648563706938030
  0.3122174415423287  0.5024982824712669  0.6043348466276073
  0.4117679970994003  0.6976337820810464  0.1723342292410251
  0.1195176744741671  0.7029988353106996  0.0186644023108910
  0.1067054498743175  0.6307377262605195  0.0869667422681350
  0.0283175102943848  0.7873143696796265  0.1671554156342588
  0.3191396846634205  0.7886716583725257  0.1088042333238532
  0.4914072536499832  0.6712976373088739  0.1075470033551721
  0.0885976941258285  0.7819863361429019  0.0593359294106313
  0.9683114403750391  0.5872189316989133  0.1280086637624791
  0.8266083235948292  0.5401832688086071  0.5285705755851665
  0.2594438811745504  0.8136608677561991  0.0029676880878472
  0.2910366090753753  0.5723866991974724  0.2459871950356322
  0.5666558676688874  0.4838342674808664  0.1379044133131455
  0.1900313100916035  0.7107803818210645  0.3063410145902368
  0.6368321731060860  1.0108699716963057  0.1600227117782623
  0.5714571082383025  0.7181949074342160  0.1219823050643696
  0.7158683957799412  0.7816669984829389  0.2723250748135227
  1.0748209356573979  0.9373970078672307  0.3747567538256091
  0.7899773788455544  0.4601956123157468 -0.0041285911888671
  0.8602955726831688  0.4872346518596703  0.0728655068701838
  0.9215019751561181  0.5428178018616699  0.0280122840176565
  0.9739926565073418  0.6866068389600570  0.4358311703209766
  1.0096115739223384  0.9296008917543257  0.2628367832108858
  0.9136958356247279  0.5143402398414897  0.5111999601574142
  0.9282272037504045  0.9419048417639032  0.3746904160723512
  0.3324750021347200  0.7613125122926997  0.7504907071110519
  0.2522288913187916  0.7545926398500615  0.7797999320406397
  0.1523361629004346  0.8583627699826358  0.6624429942743125
 -0.0068171024161457  0.8302105644347003  0.7934791442745445
  0.3193792430399524  0.9001809498605773  0.6592558565290915
  0.2535474234557855  0.6199779390048672  0.9288212475528768
 -0.0095496591671453  1.0386143892834836 -0.1749011993790546
  0.1804209932686011  0.7923189957506642  0.3874267600746805
  0.9957659870160916  0.7516783625973270  0.7595587141444962
  0.3321252265145833  0.5721425502473183  0.9619412089907886
  0.4876134532636917  0.5790002347662451  0.7556632093472668
  0.3598774489458472  0.8446818754834405  0.7791128424335416
  0.5282696071640540  0.7268114366036809  0.7771787679625213
  0.9674748126714755  0.0765390507561336  0.0873477787194366
  0.0559112188255393  0.5714876853208014  0.7276030096083913
  0.5511588746985095  0.4499047483491013  0.6547843528993565
  0.1190753744190794  0.6400931761976911  0.7522524219382085
  0.5056447432642190  0.5276444281712436  0.8836585426296697
  0.1135727108828374  0.7904534955287855  0.5456027233235812
  0.9758329646087548  0.0194426464875558 -0.0272412466752927
  0.5893274578530924  0.7851922223557380  0.7144126899948974
  0.8304221700624010  0.6954615501742673  0.3972286414161427
  0.8483651675894829  0.7731936548106524  0.4565568763932520
  0.8927273501914635  0.6327599784930116  0.7247455182489423
  0.6889379504996097  0.6117980592270152  0.5892122842560341
  0.6205016270062770  0.8269186457738310  0.8509690280327611
  0.6024982149772682  0.9524538063437571  0.8124639725685628
  0.9334284806806148  0.6935501111896432  0.8611985546147140
  0.6336607388411878  0.6658249460239872  0.0794499005822977
  0.6829532934795287  0.5252003232870935  0.8362412149039906
  0.6647422467967036  0.8050862815111979  0.6251698930840572
  0.7009940559903729  0.5856864177584816  0.9405484226953925
  0.7672222566122715  0.4814347021138831  0.8212387014289528
  0.0726731030311466  0.4966638390513229  0.8403922338291847
  0.9355657206318466  0.7676935417936419  0.4482284836566842
  0.2331768990017719  0.2202626376753859  0.6362410657722327
  0.4886838895569954  0.5021962948646495  0.2167985003732963
  0.0030340093693437  0.4177270331170933  0.5928377204382791
  0.8479808888532647  0.0681431305753633  0.4095013749125761
 -0.0294280148098109  0.2488250769944303  0.9831358036261204
  0.3980726153363184  0.8291584397206280  0.4287633689364767
  0.5510825822364673  0.0548405310296914  0.5605264025304049
  0.7825793886724607  0.8632560188134417  0.7472753998133043
  0.2619504723427733  0.0741835409528508  0.4650922760140025
  0.1988929911541261  0.2035244427472153  0.3053210884580254
  0.2158639233844640  0.0511456911781982  0.3159225907840124
  0.3538932817428181  0.0193369485107006  0.4546203188821721
  0.1700751892611776  0.2605324081393627  0.1682120080939278
  0.1030763877263718  0.1129891650674540  0.1225085328652676
  1.0162318466566149  0.1235746121043249  0.1352531921018215
  0.9905885709024950  0.1678953452391251  0.2549583684934751
  0.0855267137308370  0.2607302779326006  0.1516920214605792
  0.2860559455792377  0.1645626045413319  0.7159096233256388
  0.2560845250326400  0.0918752719947937  0.7615415928781160
  0.4077417899730516  0.0170267933290227  0.5866276386629428
  0.3414993622631903  0.2122852216299829  0.7218366858384891
  0.4274655910357836  0.1069877464315344  0.5901346637244560
  0.3960347029768209  0.1813509830861176  0.5896136399419727
  1.0067558078056906  0.3140409230101169  0.7876365572069071
  0.8377915822776061  0.3164858214469294  0.9420872136490215
  0.9499205967553754  0.4287039752129288  0.8753046389663749
  0.9839665641467157  0.3779458091772642  0.7238582379490003
  0.9182525130012893  0.3019219414335120  1.0428664270192418
  1.0556034397636400  0.2533649868230483  1.0195680793225372
  0.4655818627197436  0.7097764698768020  0.4570154301716498
  0.4154309624893388  0.6462026620280510  0.4790440233902496
  0.4366459813699470  0.5643383883590843  0.4452176111101714
  0.2656921818755328  0.9421571582450292  0.2839912920966937
  0.5476404865008270  0.6860852320763887  0.4395254008976603
  0.5011573375295919  0.5514489352482784  0.3613159689762702
  0.5632318360795702  0.6085110093130391  0.3787897901494228
  0.3267363388372060  0.9556642514146085  0.3592736330677442
  0.8804919744448569  0.7363077375592472  0.1045087162786771
  0.7981173983170056  0.6963196494273528 -0.0579507801132633
  0.7616535944871292  0.7704955805728174  0.9208858139777411
  0.5928310102333788  0.9159576959001996  0.4521994435107932
  0.8025016188845334  0.7059862769239512  0.1123895703647839
  0.6837027697158129  0.8583200792652550  0.2939923804666714
  0.7479574745697241  0.8283858657525631  0.0453790212934441
  0.7585068875643184  0.7791664846057930  0.1538562020625961
  0.6479346325281028  0.9678081483667693  0.4956930149072849
  0.7183815936816272  0.9895551950145683  0.4278971976469669
  0.7288812880676968  0.9229573391127200  0.3241770590516122
  0.6095691102307065  0.8622983183783759  0.3293554087037256
  0.2126356318409301  0.9901100900667343  0.2038314348132550
  0.8264615353809232  0.9644978118382117  0.7898784495328617
  0.7871189996919326  0.8858421094430480  0.6079193347313796
  0.7987737979301590  0.0411327755218332  0.5358465560807545
  0.7689605444615645  0.1093103785966742  0.6509693950850933
  0.8219801125935666  0.9828827652701808  0.6363907175588327
  1.0495099920083077  1.0255250945720356  0.6130174213304524
  0.1410361991170059  0.2149710913626970  0.4176506259686183
  0.2246081790053955  0.4274710706525739  0.0083835457788512
  0.2229418737869853 -0.0622347925782829 -0.2438106909039297
  0.1244363560832384  0.4203732219568302  0.0776934548601575
  0.3869908998607505  0.3569351947132863  0.3479480858202913
  0.2924847549670286  0.3095284510836885  0.2427003748281801
  0.1553833991372216  0.3284056819370426  0.7078466690131571
  0.4068823542040546  0.3332123369361203  0.4730097276278322
  0.3382537715383649  0.2651213925593483  0.4216296678650845
  0.3242940485223592  0.1621296902330276  0.2392241612636384
  0.3723116527808795  0.3394931031352427  0.6523716353156347
  0.3865221403372544  0.0645220854180002  0.3958149066071450
  0.2897542303249021  0.1220570512910928  0.4284073566870431
  0.0894758128947120 -0.0335606408758421  0.9977977456790890
  0.1803865867078201  0.2942183090547402  0.9702984052614931
  0.4162731246594844  0.4186834765516698  0.2638194627467122
  0.1946490669741364  0.4613551355777217  0.3304113639531763
  0.6528528804463823  0.0431224015420186 -0.0783433109192784
  0.8175439075972580  0.0576710386645267  0.0818854436348306
  0.4518236472847543  0.1611717770380009  0.4008561154531889
  0.2759130645245801  0.9521557594599607  0.0436795470304499
  0.3108100842524509  0.3093481133137435  0.9253059350999284
  0.4644392708545159  0.1382961451421373  0.0377019091540797
  0.1308663453227237  0.5355828774631373  0.5056420192609884
  0.5603970684845401  0.1864747044322833  0.1972105332283189
  0.0991422963060834  0.1110857924583564  0.4243449361852549
  0.2737769689450870  0.4565290032204248  0.5349183522618883
  0.0593379514539369  0.6085582370210703  0.3863809481102137
  0.3637337518766278  0.4797531066882446  0.1344423939101497
  1.1194798921122739  0.0688366771221125  0.0611121517938915
  0.2058304181479718  0.0135002313374723 -0.0736446506333648
  0.9298679952508768  0.0373708741286104  0.2092862947194638
  0.0719283421727809 -0.0626488091768505  0.8142053888147091
  0.2760027467181818  0.3893519560246556  0.1865344408208552
  0.7245742977451364  0.1111581289074610  0.3791701249819489
  0.5593956315838651  0.8638954888799534  0.1736699004940580
  0.4412965169079366  0.0445606393807657  0.2083276590391668
  0.8528330080843910  0.4479837088712696  0.2013086160156176
  0.9368411067584864  0.1867272762352062  0.2605456626858275
  0.1199302052812237  0.3769687363336839 -0.0567990856753731
  0.0118178017583340  0.4466159680563246  0.1470344092266794
  0.5836774559033202  0.2116096206968539  0.6388867412840862
  0.7396830373702895  0.3364304160959317  0.3205603038559045
  0.7317199420638096  0.1924698877833190  0.3122343019682093
  0.6297631909873358  0.2702716454440160  1.0434384239285861
  0.8109837857722273  0.6046202100630693  0.4980743015805921
  0.5749907233988161  0.2811338591617357  0.2267935004730234
  0.7534765214658511  0.4513186977992741  0.3298193503952784
  0.6131813424209460  0.4851102373510266  0.2331097816139708
  0.7586912153116687  0.1604599263474800  0.9146869749144652
  0.7678056352184945 -0.0011223293632497  0.1455607180266267
  0.9865410161901542  0.2934852941018130  0.5631725083919131
  0.7948787991812303  0.2451894063242114  0.0793021159384264
  0.5693684958242867  0.3490321054029568  0.5583406148736184
  0.3725149222725762  0.4020198701136693  0.0547632348960080
  0.8907033280473486  0.8992326512258764  0.3244510474934155
  0.6567034479488292  0.1108937117077333  0.8293030649556304
  0.8093907327848370  0.2482996730743109  0.9368657372727023
  0.4861182102465306  0.2956717455678681  0.4215370314182704
  0.2537744093172875  0.0264002434808593  0.1287846236560322
  0.1314178634089046  0.9576902099666396  0.3288748646864350
  0.6172333353149917  0.4190810183707883  0.9429587840214672
  0.0100132792614967  0.5212993787894100  0.2660260460982714
  0.6022816944625288  0.3852362981122899  0.2295412580047556
  0.4597211292325532  0.3343368962964293  0.1366143050402601
  0.1914077506209838  0.1618672961409913  1.0054654079192114
  0.2604308967324919  0.0916442554289482  0.2594995202563317
  0.1234274757973790  0.2460890416107858  0.7083143171236778
  0.2533535702254872  0.3616835832501075  0.6689664233825025
  0.2212277587464329  0.2906684850908748  0.8378383029039630
  0.3292994801480326 -0.0141424263062493  0.9223259244727340
  0.2218796518559812  0.1228081596801352  0.8387619015973022
  0.8632389277010525  0.2612456566299298  0.2336373219920375
  0.3109070708395926  0.3486366292009399  0.8810933425086585
  0.3934752203464540 -0.1023682539153277  1.0344792583543727
 -0.0993260848335640  0.4262514733771746  1.2501316472755784
  1.1002727140925910  0.2487082001488647  0.9186699315202114
  0.0655800366168439  0.1771014775329814  0.8683305879903352
  0.0608399009559932  0.5584587926512609  0.5757729066637717
  0.4354774472945522  0.3183907525624203  0.8822638722920569
  0.0332513103698335  0.1694534632846816  0.4732946511525012
  0.0351045649747803  0.1473799902029102  0.7048250802134404
  0.3331225438838962 -0.0389902010286926  0.8264958203031577
  0.4074671195497500  0.0267675404414608  0.9614587730843447
  0.5383370034866606  0.2271043411990620  0.9738715410500082
  0.1318139440088007  0.6495507056677765  0.6492924317177815
  0.3195982484869905  0.2803763384410230  0.7035569767534390
  0.1956792851233036  0.4581558955547294 -0.1229360166463449
  0.1646024553221360  0.1020706061644951  0.5738499352184019
  0.1271608637867079  0.0037040713025773  0.7902886886559695
  0.0554587295612100  0.1650053631589560  0.9440731468422584
  0.7708879518127558  0.3424600728165794  0.7370208254506779
  0.1724552306196935  0.2764621062933349  0.3772619694438480
  0.0667041006293609  0.4581253859708186  0.4405899386466727
  0.0244810710518102  0.4771978043927794  0.8820716193921115
  0.7944546905365846  0.2260737440211397  0.7723598452135151
  0.2694969264906106  0.3143741119612961  0.0546602393896006
  0.2608875815853908  0.2024673535511276  0.3528654902983137
  0.9148367546059583  0.2350001402387309  0.4018100569851821
  0.7464329304917482 -0.0233019317690408  0.8650327901491364
  0.9012455811622937  0.3601183335798305  0.6398878708274325
  0.6685125230723652  0.2880754929301445  0.6362491226402124
  0.3601963760126256  0.1123528793289776  1.0133189533177989
  0.8341516398935834  0.1622530648318900  0.0963746268131622
  0.6059704478975847  0.4216346910186706  0.6534659228502219
  0.4613428675395010  0.4097936464177868  0.8203298371307977
  0.5586449245134275  0.0641705003568718  0.9785829973729953
  0.6870195015206567  0.1008596073650137  0.3433388955377630
  0.0835705949099785  0.2897191789248634  0.5068379772402311
  0.5165300187920342  0.0659173175946205  0.8368555654261121
  0.8507347304642714  0.3715825493357471  0.4879050518847498
  0.4497003027595468  0.3228821484067745 -0.2699774437003439
  0.3876520060910167  0.4415505541470442  0.0144102101312627
  0.3011373516035297  0.0554311599246000  0.8280413454216683
  0.6608801776949567  0.2671192105775559  0.8511450942737591
  0.6416065810821008  0.2151968419081066  0.4596216036013840
  0.4818871479994645  0.3445545301769323 -0.3012277705457002
  0.8535276053419690  0.3137903149511627  0.8232921647322331
  0.6289901866786635  0.1445716764107075  0.6231970799590395
  0.5379505828081920  0.1546558748362725  0.8051724578583009
  1.0189452628951230  0.1236566523624558  0.3183711613433804
  0.6474707251740001  0.4976057533091247  0.4297240610809286
  0.8736428952659553  0.1571809529121011  0.5680359472238941
  0.9281520945555702  0.1682925525299123  0.7859285386142218
  0.4871638749727241  0.2202568452635696  0.8218441533141001
  0.8813323161177172  0.4479744703369294  0.8292067659821258
  0.4405072964794356  0.2135476833090826  0.5441851905603154
  0.6077473966034469  0.1690940307943170  0.9799812585459151
  0.6826373655217405  0.1616917763888796  0.1120826012317606
  0.5442564299299653  0.3240557855013273 -0.0452559941968892
  0.7827123499647849  0.4245010647922349  0.4977428522321316
  0.5838538911707720  0.4428104711223269  0.3777501774899275
  0.1853893796599683  0.4106642850081614  0.6031525374455508
  0.0160169353687651  0.3824001134526475  0.3195917010765012
  0.3908698518576402  0.4457478953038693  0.7401249339571304
  0.4272027799468512  0.4850055237928553  0.5805667853211940
  0.3513554446204022  0.6567022727488893  0.4667008276914228
  0.3757684482627768  0.5423626142942181  0.4482958653027517
  0.4169837428028390  0.7562647611101200  0.2214007091001063
  0.2186828800225956  0.8773045395247879  0.2690392312189326
  0.1714658100899656  0.7139263662895857 -0.0585771301109977
  0.0423550791731029  0.5865636057949882  0.4563340092910221
  0.3656832731060347  0.8330780266672431  0.0910529387024457
  0.1533983156753793  0.5944293019463499  0.1058711316007483
  0.1216338544635310  0.6908875643864781  0.3365741949085707
  0.0094170944624997  0.7342862765120159  0.1569592205067112
  0.3650033129815142  0.6568852327314403  0.1927462729122291
  0.5395138947669775  0.8338734989311356  0.1286387084919274
  0.7009587786468465  0.9515319586058925  0.2179584738577806
  0.0436915294967189  0.7755306601310933 -0.0471989169253002
  0.2274164047012709  0.6899814241262541  0.4088278135874909
  0.1522720311090122  0.5690187501651257  0.4231676403802344
  0.5093302508834957  0.4248843126299536  0.5678746528384131
  0.3146911353059682  0.5574778827124492  0.3578153630347400
  0.3048952200385388  0.7927733374068390  1.2249060671910006
  0.5795056054577643  0.7815303639752919  0.1167659873124110
  0.2034729603381184  0.8075921772635218  0.0970514273789365
  0.1402041977903922  0.1633511356025161  0.0739864927737788
  0.2936904606587448  0.6354428209229034  0.2770028711347242
  0.9277884814130143  0.5289212073668429  0.6160249997097074
  0.7363348501171568  0.9509673475255535  0.0191817685468279
  0.6559383459521244  0.6095894352546176  0.2985619944701290
  0.1535150347127119  0.7272555072404060  0.1832142930922905
  0.5079385142485315  0.6192161410022612  0.1761708581629674
  0.1062226415547628  0.8335700881406161  0.0075156160336747
  0.9470135470500480  0.8107497620310866  0.3610256309837148
  0.5488264100315463  0.6141732823690423  0.8398752849518726
  0.5744224909113599  0.7358920432065248  0.2498049445142750
  0.8473503074581120  0.0115714238082668  0.2376118618487787
  0.5561412474715551  0.4305027409528244  0.0835043031444537
  0.7137655744768682  1.0167349885674939  0.3349937528577093
  0.6759064969007560  0.4444307760469890  0.6279072491091338
  1.0117791900564477  0.9843483585411059  0.1984777578821747
  0.8668883207742055  0.9127093560372672  0.0061004024547510
  0.7651714782360701  0.5823542459313001  0.1969925690600244
  0.5820785879042460  0.9781288981218865  1.1144451060634415
  0.5642470224716283  1.1056758374929441  0.3587760928872057
  0.6973564357234597  0.8796494547139024  0.0358408650498434
  0.4726121866411692  0.9425058821233474  1.2595225927714919
  0.5804772926990774  0.5306371898605599  0.0483497006475376
  0.5684626654034660  0.9205272375868869  0.5520483860588009
  0.5438685189664042  0.4039089744698380  0.9410788639526438
  0.7155259337469309  0.7391073153059564  0.3602457734854899
  1.0329401645284908  0.7073686550374838  0.3553332293835167
  0.9424553910073563  0.5260443558950135  0.9163789349487367
  0.6449917947367736  0.9908585821471051  0.2801168849220125
  0.7841107684812757  0.9088061273097451  0.3090293832547215
  0.5734944553620303  0.8107300537025096  0.3317544722480505
  0.9444764794985280  0.9547247092318570  0.5080952007633647
  0.9518331497455699  0.6984286902582253  0.0921064203666374
  0.5839266768912200  0.7457824507230750  0.4799984457083331
  0.9663979665973008  0.5418146445717303  0.4630458006709729
  0.7993669873107342  0.6506086559833527  0.1953643727349745
  0.1004099712636917  1.0622625664762209  0.6619644909161017
  0.1625818581620391  0.9526343340093782  0.1401469381503636
  0.8335243324932871  0.5361329444680749  0.6787234130155091
  0.3253602786604039  0.5986240641320386  0.7289152956960371
  0.1445657667966211  0.7337904934378257  0.5982854123981757
  0.9790590401218040  0.9537830858999957  0.0123727820875669
  0.3867339942090251  0.7089637555477087  0.7556646123931554
 -0.1534975546998586  0.9165304022981673  0.5601547248785476
  0.1176776956106381  0.8698479565368755  0.7666342229268226
  0.2591542682673059  0.6541297604906514  0.5431064460582972
  0.3230896555623817  0.8327296587822742  0.8843508827550427
  0.2226397556831722  0.8267399453147056  0.4217536363801532
  0.2226430041388121  0.6958231160253335  0.7918409176558586
  0.2742889934722151  0.8691577279968048  0.6334496644402936
  0.1817632455771122  0.9130472605848946  0.6118586198450866
  0.2228538762161544  0.6369147586027899  1.0567573949165843
  0.1712636424189345  0.8406692151973721  0.2896995800584388
  0.3160494163348255  0.7461051955107220  0.3768695509194140
  0.5051346360463774  0.6041966029619407  0.6194700488217610
  0.2965298169887763  0.6713001313233627  0.9317549738781752
  0.4957825147970231  0.7404909169675649  0.8781978877427370
  0.0055031473666381  0.8823914027154821  0.7120202868947064
  0.0090709580430276  0.7016147321569196  0.6559299366776143
  0.4487741508449119  0.6275207295668018  0.7860811047626750
  0.3770485876803282  0.6132107739915249  1.0039317920386424
  0.9526106948348200  0.7586811481326017  0.6727309689197092
  0.4749235974225696  0.7216035070788648  0.6854194090458341
  0.0104698487778911  0.6067489294941923  0.7377622427900048
  0.3189570329336843 -0.0242451776706721  0.6529524649092507
  0.0892621326990671  0.5327666371664844  0.9628493186896420
  0.1924142331060409  1.0029147008686412  0.6457168821787572
  0.0806703290822185  0.6809482279238078  0.8164396463611918
  0.0255603029916054  1.0932187885904492  0.7613713998753038
  0.4735384787576289  0.6420555528698917  0.9804795386391634
  0.4389701240604827  0.5321581821519527  0.1494383040657616
 -0.0588425042455281  0.2248440202030079 -0.1360092287768510
  0.3631299503227319  0.5341446659873514  0.8600206931843932
  0.7656624938007881  0.4170552777124046  0.7458751307627242
  0.6250700900089903  1.0044869457789882  0.7533079252054683
  0.0999064043100266  0.6198643711692410  0.2151769852214305
  0.3555322503399395  0.8727557060810890  0.5470503814756025
  0.6671431603292157  0.7797919964004926  0.5100953359768331
  0.0536933388297288  0.7866316081767881  0.5439427723827813
  0.7367404919720590  0.6410416795811625  0.6213117192698143
  0.6870398982283488  0.7029890248286004  1.1341001272035509
  0.9508507206347860  0.0129537645566770  0.7556274717114281
  0.8006102834498017  0.6430111963235758  0.8789042642724280
  0.5670104003707137  0.9337787561852224  0.7199603753313616
  0.5750525099208463  0.5102253939509598  0.6049585222852367
  0.6665295565764292  0.6686533093957759  0.5502280074969129
  0.7589745763379416  0.5630517854727053  0.1157519936459642
  0.7542757030721227  0.6007643132888640  0.9971487160197119
  0.6809956590255907  0.8457820259290606  0.6938931687709403
  0.6920861910127667  0.6351061783058058  0.8719283354867894
  0.5687940415520025  0.8260805083216844  0.9343863335723043
  0.9022350284210418  0.5747155017460338  0.7486447114970249
  0.6478951188060942  0.8126647188736369  0.9407775250422944
  0.7419936896052389  0.8584455473596794  0.5029081969401513
  0.7816716591987986  0.6451540787557145  0.3940282505865783
  1.0884173199261962  0.8728870008804913  0.4177510858896399
  0.8721598007691509  0.9817312788282528  0.8542272066057325
  0.9317928155066486  0.6489745756854461  0.6526427463917778
  0.8317959494776798  0.7815619129065468  0.5825145373736772
  0.6395749559872989  0.4909205704613593  0.9092199087709502
  0.6197192174708197  0.5873713691108322  0.4222436826701413
  0.7020462072933539  0.6245075759477858  0.2881606569861752
  0.7055306434993784  0.5818410121608801  0.4793113503055507
  0.7943186310106098  0.5328359909911184  0.7862508954548967
 -0.0319991843046304  0.6420686883251939  0.9115617226870314
  0.6993971660958982  0.7309940806253448  0.6351712545146563
  0.5599438627790807  0.8415253013007823  0.6425024116864403
  0.4824974173494493  0.8613389025581849  0.9699712413503311
  0.4828888699816203  0.5471583941738439  1.0004639777935380
  0.0620139915667962  0.7922370660866580  0.3121002006900681
  0.9587333441765540  0.8037652347474784  0.5186732269279389
  0.8109898365329430  0.1529960733224934  0.6287035984148571
  0.8334008998148047  0.8191919140522437  0.3975669045978819
  0.9720655541921505  0.5931913732531064  0.2851738685236940
  0.9730612111277297  0.6234080390165876  0.4726601407928958
  0.8011931387179022  0.3585860912904416  0.9907347107531974
  0.9789069041418712  0.2699989459701660  0.2759728105337990
  0.5422941313370335  0.1898696875925998  0.4604740680831300
  0.4725867387368215  0.9205321538491171  0.5348839879116992
  0.4779543491274258  1.0166575942313030  0.3747277308220708
  0.7062853417626820  0.1116789599475343  0.6540031038325022
  0.9153550136188003  0.7693497621666787  0.1942427330792136
  0.8502665956594211  0.9007864863962849  0.0799462464115844
  1.0338484223417943  0.2311093342884872  0.2870449115670831
  0.9024707684645938  0.2889669913654921  0.1843284477428278
  0.5055309945459576  0.1183560319637075  0.5775818964934385
  0.4664996875348379  0.7906374364216526  0.4767720877661817
  0.3917693110402322  0.9045279801488748  0.3386614673474997
  0.6227264164667333  0.0321135882097922  0.5988692455173168
  0.8131051346637862  0.9018187408110987  0.8753019463924121
  0.8793940717749497  0.7305280894725147 -0.0653918354293685
  0.1281851536203725  0.3816753418219058  0.8298229527889485
  0.4631967436302293  0.4246124491729918  0.2845998641558261
  0.8448403536319650  0.1451849522408883  0.3922893833492701
  0.1580519816583177  0.1940255063140768  0.6834299320731276
 -0.0522997427385095  0.3896574667680222  1.0060358383423640
  0.3273519539738184  0.7840531605285467  0.4359128417625466
  0.4751658362499404  0.9773939719950685  0.5787857570793691
  0.7615288123085886  0.7862637643815377  0.7723228429813637
  0.0656076933406038  0.2760357194511663  0.7431171176297396
  1.0877578280480675  0.9667137790615413  0.5320765920782875
  0.1764747332444000  0.3508268521297277  0.4036804107247756
  0.2932552855392890  0.3621430823581462  0.4530559795010912
  0.3066399353947498  0.0626126584661601  0.0797636550008062
  0.4123479838839159  0.2394827658892212  0.2332768224618022
  0.2121343716606524  0.5717983952637554  0.2734365473530719
  0.6101089999623852  1.0853942429710153  0.1724521233148205
  0.7156645133754076  0.4430345821375319  0.0225816762127592
  0.7768144969810149  0.3387580157453139  0.2362513520601185
  0.6742415482683541  0.3830813998895546  0.4316168412063946
  0.1695652288595166  0.4701680139716327  0.6278947300927548
 -0.0069847349291368  0.0544859983075679  0.5212810693479153
  0.8511277562832321  0.1039064468517192  0.9068626569093747
  0.4100400680494157  0.1397143350466890  0.9447040202927407
  0.7970006940517961  0.2917629846274312  0.5922720514233669